80 3160
1 2 203
1 3 158
1 4 131
1 5 124
1 6 32
1 7 95
1 8 189
1 9 213
1 10 163
1 11 68
1 12 121
1 13 120
1 14 15
1 15 65
1 16 142
1 17 53
1 18 57
1 19 118
1 20 200
1 21 215
1 22 46
1 23 8
1 24 181
1 25 140
1 26 162
1 27 124
1 28 24
1 29 12
1 30 17
1 31 230
1 32 196
1 33 110
1 34 126
1 35 158
1 36 56
1 37 14
1 38 234
1 39 36
1 40 31
1 41 86
1 42 164
1 43 185
1 44 189
1 45 207
1 46 145
1 47 6
1 48 108
1 49 42
1 50 11
1 51 232
1 52 136
1 53 49
1 54 77
1 55 123
1 56 203
1 57 63
1 58 42
1 59 54
1 60 144
1 61 152
1 62 111
1 63 233
1 64 95
1 65 63
1 66 98
1 67 22
1 68 103
1 69 27
1 70 32
1 71 144
1 72 203
1 73 186
1 74 60
1 75 105
1 76 54
1 77 224
1 78 121
1 79 198
1 80 160
2 3 232
2 4 144
2 5 59
2 6 230
2 7 92
2 8 127
2 9 55
2 10 88
2 11 5
2 12 81
2 13 221
2 14 207
2 15 195
2 16 55
2 17 60
2 18 185
2 19 211
2 20 27
2 21 206
2 22 18
2 23 87
2 24 183
2 25 20
2 26 9
2 27 9
2 28 201
2 29 155
2 30 185
2 31 106
2 32 178
2 33 7
2 34 57
2 35 78
2 36 68
2 37 229
2 38 23
2 39 75
2 40 236
2 41 127
2 42 124
2 43 169
2 44 167
2 45 70
2 46 2
2 47 231
2 48 71
2 49 198
2 50 27
2 51 175
2 52 182
2 53 93
2 54 147
2 55 134
2 56 48
2 57 142
2 58 60
2 59 55
2 60 52
2 61 233
2 62 51
2 63 237
2 64 165
2 65 42
2 66 135
2 67 147
2 68 149
2 69 85
2 70 183
2 71 14
2 72 129
2 73 48
2 74 114
2 75 107
2 76 155
2 77 97
2 78 158
2 79 43
2 80 9
3 4 108
3 5 124
3 6 90
3 7 205
3 8 19
3 9 217
3 10 86
3 11 51
3 12 123
3 13 110
3 14 182
3 15 121
3 16 209
3 17 103
3 18 16
3 19 170
3 20 66
3 21 49
3 22 218
3 23 188
3 24 81
3 25 68
3 26 90
3 27 34
3 28 11
3 29 82
3 30 219
3 31 98
3 32 187
3 33 37
3 34 235
3 35 147
3 36 239
3 37 182
3 38 223
3 39 119
3 40 31
3 41 94
3 42 230
3 43 213
3 44 140
3 45 238
3 46 78
3 47 184
3 48 239
3 49 29
3 50 199
3 51 58
3 52 31
3 53 209
3 54 162
3 55 12
3 56 39
3 57 41
3 58 134
3 59 92
3 60 196
3 61 107
3 62 109
3 63 117
3 64 189
3 65 164
3 66 165
3 67 58
3 68 36
3 69 193
3 70 227
3 71 199
3 72 117
3 73 43
3 74 143
3 75 28
3 76 64
3 77 54
3 78 21
3 79 95
3 80 58
4 5 92
4 6 43
4 7 74
4 8 14
4 9 176
4 10 65
4 11 105
4 12 190
4 13 233
4 14 98
4 15 196
4 16 68
4 17 48
4 18 200
4 19 130
4 20 56
4 21 201
4 22 183
4 23 236
4 24 164
4 25 95
4 26 188
4 27 237
4 28 35
4 29 26
4 30 187
4 31 151
4 32 29
4 33 123
4 34 169
4 35 66
4 36 53
4 37 232
4 38 192
4 39 40
4 40 89
4 41 123
4 42 236
4 43 205
4 44 84
4 45 224
4 46 31
4 47 58
4 48 146
4 49 229
4 50 186
4 51 113
4 52 154
4 53 62
4 54 59
4 55 178
4 56 97
4 57 116
4 58 178
4 59 110
4 60 67
4 61 231
4 62 192
4 63 77
4 64 16
4 65 138
4 66 40
4 67 24
4 68 44
4 69 150
4 70 27
4 71 152
4 72 215
4 73 21
4 74 66
4 75 137
4 76 114
4 77 115
4 78 18
4 79 5
4 80 174
5 6 119
5 7 232
5 8 8
5 9 153
5 10 17
5 11 218
5 12 172
5 13 36
5 14 41
5 15 142
5 16 213
5 17 177
5 18 140
5 19 51
5 20 176
5 21 213
5 22 74
5 23 56
5 24 194
5 25 150
5 26 193
5 27 170
5 28 100
5 29 144
5 30 238
5 31 105
5 32 83
5 33 12
5 34 95
5 35 16
5 36 105
5 37 140
5 38 207
5 39 174
5 40 111
5 41 165
5 42 179
5 43 155
5 44 74
5 45 19
5 46 7
5 47 117
5 48 1
5 49 58
5 50 115
5 51 87
5 52 113
5 53 121
5 54 139
5 55 195
5 56 141
5 57 157
5 58 60
5 59 229
5 60 236
5 61 80
5 62 177
5 63 32
5 64 220
5 65 58
5 66 215
5 67 145
5 68 218
5 69 193
5 70 23
5 71 85
5 72 150
5 73 75
5 74 30
5 75 115
5 76 68
5 77 192
5 78 239
5 79 87
5 80 116
6 7 139
6 8 109
6 9 0
6 10 78
6 11 47
6 12 177
6 13 219
6 14 130
6 15 174
6 16 55
6 17 8
6 18 114
6 19 88
6 20 144
6 21 40
6 22 141
6 23 67
6 24 170
6 25 21
6 26 151
6 27 46
6 28 187
6 29 46
6 30 117
6 31 164
6 32 32
6 33 120
6 34 121
6 35 159
6 36 15
6 37 159
6 38 201
6 39 96
6 40 95
6 41 167
6 42 177
6 43 186
6 44 112
6 45 118
6 46 213
6 47 90
6 48 15
6 49 104
6 50 81
6 51 183
6 52 173
6 53 72
6 54 194
6 55 187
6 56 17
6 57 204
6 58 161
6 59 147
6 60 70
6 61 175
6 62 195
6 63 146
6 64 90
6 65 59
6 66 191
6 67 3
6 68 130
6 69 72
6 70 118
6 71 200
6 72 45
6 73 66
6 74 129
6 75 224
6 76 94
6 77 123
6 78 33
6 79 182
6 80 225
7 8 163
7 9 28
7 10 175
7 11 119
7 12 130
7 13 157
7 14 177
7 15 51
7 16 222
7 17 72
7 18 120
7 19 82
7 20 222
7 21 28
7 22 199
7 23 10
7 24 148
7 25 122
7 26 53
7 27 53
7 28 13
7 29 174
7 30 40
7 31 119
7 32 223
7 33 46
7 34 144
7 35 62
7 36 114
7 37 54
7 38 83
7 39 24
7 40 44
7 41 1
7 42 205
7 43 148
7 44 45
7 45 160
7 46 215
7 47 47
7 48 29
7 49 20
7 50 56
7 51 22
7 52 94
7 53 195
7 54 191
7 55 236
7 56 184
7 57 96
7 58 196
7 59 228
7 60 51
7 61 73
7 62 197
7 63 150
7 64 97
7 65 207
7 66 135
7 67 23
7 68 158
7 69 151
7 70 168
7 71 104
7 72 94
7 73 37
7 74 199
7 75 208
7 76 92
7 77 124
7 78 25
7 79 35
7 80 148
8 9 23
8 10 200
8 11 89
8 12 136
8 13 84
8 14 207
8 15 28
8 16 138
8 17 3
8 18 185
8 19 156
8 20 93
8 21 52
8 22 66
8 23 36
8 24 20
8 25 181
8 26 123
8 27 239
8 28 67
8 29 110
8 30 142
8 31 153
8 32 157
8 33 159
8 34 89
8 35 20
8 36 77
8 37 66
8 38 123
8 39 225
8 40 53
8 41 41
8 42 195
8 43 169
8 44 173
8 45 93
8 46 201
8 47 236
8 48 56
8 49 235
8 50 82
8 51 85
8 52 187
8 53 119
8 54 40
8 55 56
8 56 146
8 57 104
8 58 175
8 59 46
8 60 182
8 61 204
8 62 150
8 63 221
8 64 127
8 65 72
8 66 167
8 67 190
8 68 52
8 69 122
8 70 60
8 71 7
8 72 201
8 73 226
8 74 19
8 75 26
8 76 155
8 77 8
8 78 146
8 79 117
8 80 202
9 10 215
9 11 50
9 12 132
9 13 94
9 14 234
9 15 175
9 16 113
9 17 215
9 18 186
9 19 109
9 20 177
9 21 123
9 22 142
9 23 108
9 24 150
9 25 45
9 26 11
9 27 179
9 28 183
9 29 199
9 30 79
9 31 160
9 32 8
9 33 163
9 34 168
9 35 80
9 36 43
9 37 53
9 38 35
9 39 135
9 40 62
9 41 58
9 42 90
9 43 132
9 44 193
9 45 56
9 46 115
9 47 154
9 48 74
9 49 134
9 50 232
9 51 60
9 52 149
9 53 201
9 54 187
9 55 182
9 56 110
9 57 3
9 58 139
9 59 70
9 60 28
9 61 50
9 62 233
9 63 135
9 64 229
9 65 72
9 66 73
9 67 39
9 68 149
9 69 58
9 70 186
9 71 82
9 72 202
9 73 188
9 74 88
9 75 208
9 76 71
9 77 50
9 78 180
9 79 103
9 80 57
10 11 227
10 12 150
10 13 62
10 14 217
10 15 181
10 16 91
10 17 34
10 18 27
10 19 17
10 20 130
10 21 97
10 22 22
10 23 138
10 24 144
10 25 153
10 26 54
10 27 232
10 28 155
10 29 198
10 30 14
10 31 158
10 32 13
10 33 136
10 34 161
10 35 190
10 36 27
10 37 220
10 38 3
10 39 200
10 40 175
10 41 149
10 42 165
10 43 43
10 44 187
10 45 185
10 46 203
10 47 152
10 48 131
10 49 155
10 50 44
10 51 233
10 52 103
10 53 98
10 54 57
10 55 14
10 56 230
10 57 163
10 58 108
10 59 204
10 60 130
10 61 22
10 62 235
10 63 179
10 64 213
10 65 227
10 66 7
10 67 32
10 68 78
10 69 123
10 70 49
10 71 80
10 72 69
10 73 36
10 74 179
10 75 235
10 76 139
10 77 174
10 78 172
10 79 224
10 80 229
11 12 18
11 13 123
11 14 38
11 15 64
11 16 209
11 17 21
11 18 27
11 19 18
11 20 220
11 21 118
11 22 116
11 23 61
11 24 25
11 25 91
11 26 239
11 27 91
11 28 94
11 29 236
11 30 139
11 31 213
11 32 161
11 33 102
11 34 28
11 35 59
11 36 44
11 37 187
11 38 205
11 39 189
11 40 79
11 41 97
11 42 29
11 43 158
11 44 236
11 45 79
11 46 182
11 47 157
11 48 239
11 49 61
11 50 14
11 51 126
11 52 175
11 53 133
11 54 55
11 55 18
11 56 86
11 57 181
11 58 109
11 59 186
11 60 53
11 61 5
11 62 142
11 63 192
11 64 17
11 65 142
11 66 22
11 67 73
11 68 32
11 69 80
11 70 190
11 71 152
11 72 216
11 73 63
11 74 2
11 75 156
11 76 24
11 77 176
11 78 239
11 79 39
11 80 175
12 13 42
12 14 226
12 15 210
12 16 46
12 17 54
12 18 125
12 19 37
12 20 93
12 21 145
12 22 178
12 23 195
12 24 86
12 25 6
12 26 143
12 27 233
12 28 217
12 29 187
12 30 90
12 31 77
12 32 18
12 33 215
12 34 102
12 35 85
12 36 52
12 37 107
12 38 146
12 39 56
12 40 58
12 41 16
12 42 36
12 43 105
12 44 140
12 45 73
12 46 12
12 47 69
12 48 135
12 49 28
12 50 183
12 51 156
12 52 49
12 53 233
12 54 121
12 55 226
12 56 139
12 57 127
12 58 157
12 59 110
12 60 229
12 61 228
12 62 200
12 63 213
12 64 206
12 65 171
12 66 201
12 67 183
12 68 64
12 69 227
12 70 181
12 71 71
12 72 237
12 73 5
12 74 57
12 75 52
12 76 59
12 77 82
12 78 88
12 79 220
12 80 48
13 14 118
13 15 108
13 16 102
13 17 31
13 18 20
13 19 145
13 20 81
13 21 216
13 22 45
13 23 2
13 24 178
13 25 111
13 26 119
13 27 46
13 28 77
13 29 212
13 30 53
13 31 108
13 32 37
13 33 88
13 34 130
13 35 85
13 36 50
13 37 72
13 38 26
13 39 37
13 40 200
13 41 24
13 42 155
13 43 47
13 44 205
13 45 44
13 46 138
13 47 120
13 48 209
13 49 216
13 50 79
13 51 161
13 52 237
13 53 105
13 54 151
13 55 28
13 56 105
13 57 202
13 58 222
13 59 209
13 60 53
13 61 106
13 62 227
13 63 71
13 64 11
13 65 147
13 66 80
13 67 81
13 68 206
13 69 147
13 70 203
13 71 31
13 72 54
13 73 28
13 74 172
13 75 188
13 76 92
13 77 45
13 78 219
13 79 117
13 80 222
14 15 23
14 16 2
14 17 164
14 18 215
14 19 153
14 20 123
14 21 116
14 22 172
14 23 34
14 24 100
14 25 8
14 26 166
14 27 31
14 28 91
14 29 199
14 30 227
14 31 121
14 32 204
14 33 54
14 34 97
14 35 228
14 36 89
14 37 56
14 38 186
14 39 132
14 40 235
14 41 70
14 42 32
14 43 146
14 44 9
14 45 103
14 46 209
14 47 60
14 48 165
14 49 167
14 50 125
14 51 11
14 52 167
14 53 138
14 54 182
14 55 110
14 56 128
14 57 156
14 58 153
14 59 51
14 60 217
14 61 189
14 62 200
14 63 34
14 64 121
14 65 84
14 66 49
14 67 217
14 68 119
14 69 104
14 70 212
14 71 16
14 72 229
14 73 88
14 74 213
14 75 139
14 76 143
14 77 136
14 78 235
14 79 189
14 80 10
15 16 232
15 17 48
15 18 169
15 19 51
15 20 148
15 21 140
15 22 12
15 23 203
15 24 204
15 25 144
15 26 150
15 27 184
15 28 200
15 29 145
15 30 208
15 31 23
15 32 160
15 33 205
15 34 26
15 35 19
15 36 137
15 37 85
15 38 148
15 39 21
15 40 81
15 41 236
15 42 225
15 43 145
15 44 101
15 45 13
15 46 66
15 47 237
15 48 162
15 49 38
15 50 9
15 51 157
15 52 143
15 53 205
15 54 28
15 55 218
15 56 51
15 57 69
15 58 141
15 59 196
15 60 137
15 61 232
15 62 29
15 63 170
15 64 27
15 65 162
15 66 190
15 67 142
15 68 148
15 69 25
15 70 106
15 71 80
15 72 4
15 73 30
15 74 167
15 75 109
15 76 114
15 77 93
15 78 223
15 79 201
15 80 193
16 17 112
16 18 25
16 19 19
16 20 139
16 21 226
16 22 233
16 23 70
16 24 143
16 25 41
16 26 85
16 27 217
16 28 207
16 29 41
16 30 236
16 31 151
16 32 71
16 33 26
16 34 171
16 35 223
16 36 117
16 37 113
16 38 230
16 39 210
16 40 68
16 41 98
16 42 100
16 43 238
16 44 120
16 45 225
16 46 67
16 47 161
16 48 62
16 49 156
16 50 48
16 51 102
16 52 153
16 53 77
16 54 12
16 55 26
16 56 25
16 57 213
16 58 79
16 59 146
16 60 168
16 61 76
16 62 108
16 63 215
16 64 129
16 65 26
16 66 3
16 67 217
16 68 64
16 69 42
16 70 127
16 71 30
16 72 62
16 73 101
16 74 72
16 75 86
16 76 237
16 77 175
16 78 164
16 79 81
16 80 51
17 18 123
17 19 43
17 20 186
17 21 228
17 22 12
17 23 188
17 24 89
17 25 96
17 26 65
17 27 100
17 28 1
17 29 185
17 30 191
17 31 92
17 32 7
17 33 132
17 34 175
17 35 179
17 36 183
17 37 76
17 38 209
17 39 177
17 40 140
17 41 211
17 42 176
17 43 190
17 44 48
17 45 47
17 46 109
17 47 199
17 48 14
17 49 136
17 50 49
17 51 164
17 52 124
17 53 97
17 54 65
17 55 212
17 56 109
17 57 37
17 58 204
17 59 7
17 60 156
17 61 1
17 62 27
17 63 192
17 64 135
17 65 102
17 66 203
17 67 28
17 68 221
17 69 143
17 70 102
17 71 7
17 72 123
17 73 76
17 74 190
17 75 76
17 76 154
17 77 166
17 78 58
17 79 144
17 80 146
18 19 136
18 20 79
18 21 128
18 22 213
18 23 152
18 24 89
18 25 125
18 26 17
18 27 210
18 28 176
18 29 210
18 30 143
18 31 91
18 32 101
18 33 193
18 34 174
18 35 31
18 36 27
18 37 195
18 38 27
18 39 199
18 40 82
18 41 98
18 42 144
18 43 103
18 44 149
18 45 11
18 46 215
18 47 151
18 48 147
18 49 199
18 50 222
18 51 3
18 52 125
18 53 44
18 54 150
18 55 233
18 56 223
18 57 98
18 58 61
18 59 55
18 60 118
18 61 175
18 62 51
18 63 142
18 64 17
18 65 83
18 66 55
18 67 161
18 68 148
18 69 128
18 70 56
18 71 75
18 72 162
18 73 97
18 74 215
18 75 134
18 76 0
18 77 131
18 78 25
18 79 235
18 80 217
19 20 119
19 21 198
19 22 211
19 23 21
19 24 109
19 25 60
19 26 165
19 27 53
19 28 172
19 29 53
19 30 13
19 31 71
19 32 204
19 33 122
19 34 195
19 35 173
19 36 231
19 37 237
19 38 100
19 39 71
19 40 206
19 41 196
19 42 137
19 43 201
19 44 172
19 45 200
19 46 130
19 47 180
19 48 95
19 49 169
19 50 39
19 51 197
19 52 110
19 53 226
19 54 163
19 55 162
19 56 4
19 57 3
19 58 141
19 59 177
19 60 78
19 61 197
19 62 65
19 63 166
19 64 22
19 65 49
19 66 233
19 67 77
19 68 206
19 69 43
19 70 231
19 71 229
19 72 210
19 73 14
19 74 153
19 75 68
19 76 139
19 77 48
19 78 163
19 79 160
19 80 186
20 21 58
20 22 95
20 23 152
20 24 188
20 25 51
20 26 91
20 27 192
20 28 8
20 29 73
20 30 132
20 31 216
20 32 129
20 33 86
20 34 65
20 35 27
20 36 107
20 37 161
20 38 202
20 39 237
20 40 120
20 41 138
20 42 189
20 43 172
20 44 119
20 45 213
20 46 85
20 47 204
20 48 169
20 49 55
20 50 120
20 51 57
20 52 239
20 53 126
20 54 199
20 55 70
20 56 64
20 57 55
20 58 234
20 59 18
20 60 216
20 61 200
20 62 172
20 63 178
20 64 237
20 65 148
20 66 205
20 67 6
20 68 12
20 69 126
20 70 153
20 71 63
20 72 175
20 73 106
20 74 106
20 75 115
20 76 180
20 77 71
20 78 199
20 79 16
20 80 78
21 22 91
21 23 51
21 24 180
21 25 152
21 26 32
21 27 137
21 28 15
21 29 71
21 30 27
21 31 72
21 32 115
21 33 157
21 34 104
21 35 205
21 36 31
21 37 24
21 38 95
21 39 237
21 40 103
21 41 96
21 42 82
21 43 17
21 44 82
21 45 188
21 46 176
21 47 147
21 48 74
21 49 220
21 50 8
21 51 73
21 52 25
21 53 121
21 54 127
21 55 237
21 56 6
21 57 114
21 58 121
21 59 164
21 60 38
21 61 159
21 62 113
21 63 201
21 64 77
21 65 27
21 66 220
21 67 9
21 68 116
21 69 44
21 70 87
21 71 140
21 72 27
21 73 35
21 74 208
21 75 116
21 76 107
21 77 64
21 78 13
21 79 224
21 80 173
22 23 154
22 24 181
22 25 221
22 26 226
22 27 64
22 28 149
22 29 28
22 30 180
22 31 137
22 32 227
22 33 137
22 34 104
22 35 40
22 36 138
22 37 43
22 38 152
22 39 138
22 40 11
22 41 187
22 42 23
22 43 173
22 44 64
22 45 126
22 46 166
22 47 180
22 48 222
22 49 131
22 50 234
22 51 124
22 52 143
22 53 33
22 54 201
22 55 42
22 56 162
22 57 21
22 58 10
22 59 144
22 60 189
22 61 177
22 62 105
22 63 93
22 64 165
22 65 137
22 66 131
22 67 70
22 68 55
22 69 148
22 70 67
22 71 156
22 72 146
22 73 218
22 74 188
22 75 87
22 76 75
22 77 227
22 78 19
22 79 92
22 80 219
23 24 201
23 25 20
23 26 187
23 27 190
23 28 7
23 29 73
23 30 53
23 31 180
23 32 162
23 33 71
23 34 2
23 35 184
23 36 189
23 37 128
23 38 230
23 39 141
23 40 160
23 41 52
23 42 123
23 43 13
23 44 114
23 45 93
23 46 113
23 47 229
23 48 166
23 49 234
23 50 142
23 51 173
23 52 47
23 53 158
23 54 87
23 55 84
23 56 76
23 57 187
23 58 183
23 59 139
23 60 208
23 61 219
23 62 206
23 63 237
23 64 116
23 65 106
23 66 217
23 67 163
23 68 239
23 69 42
23 70 98
23 71 164
23 72 239
23 73 94
23 74 170
23 75 204
23 76 34
23 77 111
23 78 101
23 79 150
23 80 159
24 25 168
24 26 33
24 27 153
24 28 207
24 29 113
24 30 44
24 31 99
24 32 120
24 33 98
24 34 239
24 35 187
24 36 21
24 37 193
24 38 136
24 39 177
24 40 111
24 41 139
24 42 220
24 43 137
24 44 45
24 45 21
24 46 156
24 47 61
24 48 126
24 49 67
24 50 223
24 51 158
24 52 123
24 53 99
24 54 177
24 55 202
24 56 234
24 57 229
24 58 103
24 59 134
24 60 226
24 61 65
24 62 40
24 63 108
24 64 154
24 65 55
24 66 139
24 67 191
24 68 69
24 69 92
24 70 88
24 71 82
24 72 70
24 73 31
24 74 22
24 75 93
24 76 68
24 77 18
24 78 83
24 79 182
24 80 67
25 26 43
25 27 81
25 28 14
25 29 238
25 30 20
25 31 131
25 32 140
25 33 48
25 34 139
25 35 95
25 36 6
25 37 70
25 38 26
25 39 152
25 40 78
25 41 203
25 42 105
25 43 227
25 44 212
25 45 188
25 46 237
25 47 98
25 48 77
25 49 171
25 50 127
25 51 161
25 52 173
25 53 173
25 54 75
25 55 203
25 56 197
25 57 18
25 58 203
25 59 2
25 60 205
25 61 227
25 62 209
25 63 193
25 64 141
25 65 111
25 66 135
25 67 173
25 68 42
25 69 176
25 70 56
25 71 51
25 72 219
25 73 130
25 74 209
25 75 19
25 76 65
25 77 47
25 78 114
25 79 3
25 80 236
26 27 95
26 28 229
26 29 213
26 30 120
26 31 112
26 32 232
26 33 92
26 34 204
26 35 166
26 36 0
26 37 133
26 38 39
26 39 235
26 40 38
26 41 179
26 42 29
26 43 154
26 44 161
26 45 137
26 46 218
26 47 157
26 48 204
26 49 56
26 50 175
26 51 167
26 52 167
26 53 20
26 54 175
26 55 28
26 56 147
26 57 36
26 58 12
26 59 145
26 60 18
26 61 32
26 62 170
26 63 188
26 64 205
26 65 70
26 66 169
26 67 191
26 68 156
26 69 179
26 70 184
26 71 79
26 72 131
26 73 135
26 74 132
26 75 70
26 76 197
26 77 1
26 78 72
26 79 50
26 80 7
27 28 46
27 29 196
27 30 238
27 31 238
27 32 143
27 33 172
27 34 239
27 35 92
27 36 129
27 37 97
27 38 212
27 39 227
27 40 191
27 41 199
27 42 35
27 43 99
27 44 159
27 45 9
27 46 68
27 47 131
27 48 95
27 49 45
27 50 54
27 51 239
27 52 206
27 53 237
27 54 24
27 55 139
27 56 68
27 57 161
27 58 102
27 59 165
27 60 114
27 61 18
27 62 17
27 63 202
27 64 65
27 65 87
27 66 238
27 67 35
27 68 75
27 69 2
27 70 207
27 71 235
27 72 211
27 73 202
27 74 87
27 75 85
27 76 107
27 77 14
27 78 187
27 79 39
27 80 208
28 29 61
28 30 91
28 31 188
28 32 72
28 33 80
28 34 149
28 35 109
28 36 141
28 37 49
28 38 49
28 39 127
28 40 57
28 41 238
28 42 218
28 43 149
28 44 136
28 45 107
28 46 83
28 47 174
28 48 158
28 49 188
28 50 206
28 51 133
28 52 192
28 53 201
28 54 198
28 55 146
28 56 8
28 57 60
28 58 78
28 59 146
28 60 79
28 61 171
28 62 177
28 63 223
28 64 157
28 65 65
28 66 92
28 67 163
28 68 217
28 69 216
28 70 51
28 71 112
28 72 135
28 73 236
28 74 145
28 75 198
28 76 220
28 77 195
28 78 196
28 79 175
28 80 10
29 30 173
29 31 150
29 32 32
29 33 183
29 34 140
29 35 228
29 36 123
29 37 41
29 38 197
29 39 45
29 40 37
29 41 150
29 42 194
29 43 86
29 44 4
29 45 24
29 46 195
29 47 216
29 48 192
29 49 189
29 50 48
29 51 184
29 52 152
29 53 155
29 54 223
29 55 113
29 56 129
29 57 103
29 58 51
29 59 117
29 60 173
29 61 191
29 62 149
29 63 63
29 64 201
29 65 142
29 66 223
29 67 8
29 68 186
29 69 83
29 70 36
29 71 51
29 72 163
29 73 152
29 74 84
29 75 3
29 76 71
29 77 71
29 78 81
29 79 95
29 80 93
30 31 169
30 32 63
30 33 135
30 34 115
30 35 205
30 36 26
30 37 220
30 38 120
30 39 86
30 40 159
30 41 122
30 42 24
30 43 9
30 44 160
30 45 65
30 46 191
30 47 160
30 48 39
30 49 6
30 50 80
30 51 25
30 52 59
30 53 24
30 54 202
30 55 167
30 56 85
30 57 147
30 58 120
30 59 113
30 60 37
30 61 165
30 62 99
30 63 22
30 64 139
30 65 41
30 66 191
30 67 101
30 68 83
30 69 231
30 70 143
30 71 96
30 72 105
30 73 153
30 74 235
30 75 92
30 76 211
30 77 101
30 78 46
30 79 116
30 80 192
31 32 30
31 33 182
31 34 72
31 35 75
31 36 32
31 37 74
31 38 57
31 39 188
31 40 76
31 41 193
31 42 169
31 43 237
31 44 109
31 45 87
31 46 53
31 47 142
31 48 182
31 49 163
31 50 112
31 51 193
31 52 193
31 53 137
31 54 188
31 55 40
31 56 49
31 57 166
31 58 231
31 59 191
31 60 55
31 61 76
31 62 140
31 63 64
31 64 221
31 65 228
31 66 89
31 67 112
31 68 235
31 69 159
31 70 219
31 71 120
31 72 128
31 73 136
31 74 73
31 75 103
31 76 176
31 77 116
31 78 229
31 79 45
31 80 128
32 33 58
32 34 226
32 35 80
32 36 38
32 37 110
32 38 58
32 39 233
32 40 64
32 41 73
32 42 64
32 43 99
32 44 66
32 45 20
32 46 86
32 47 133
32 48 149
32 49 191
32 50 32
32 51 187
32 52 188
32 53 115
32 54 236
32 55 146
32 56 14
32 57 92
32 58 24
32 59 212
32 60 214
32 61 164
32 62 114
32 63 176
32 64 195
32 65 57
32 66 118
32 67 190
32 68 27
32 69 17
32 70 70
32 71 129
32 72 230
32 73 229
32 74 159
32 75 101
32 76 178
32 77 118
32 78 56
32 79 155
32 80 136
33 34 49
33 35 90
33 36 211
33 37 108
33 38 153
33 39 1
33 40 235
33 41 54
33 42 129
33 43 159
33 44 41
33 45 79
33 46 27
33 47 99
33 48 64
33 49 51
33 50 62
33 51 232
33 52 135
33 53 56
33 54 42
33 55 35
33 56 206
33 57 208
33 58 139
33 59 70
33 60 191
33 61 190
33 62 75
33 63 123
33 64 146
33 65 23
33 66 206
33 67 179
33 68 66
33 69 110
33 70 141
33 71 21
33 72 215
33 73 103
33 74 127
33 75 237
33 76 23
33 77 90
33 78 202
33 79 76
33 80 232
34 35 24
34 36 181
34 37 8
34 38 178
34 39 142
34 40 101
34 41 236
34 42 130
34 43 84
34 44 1
34 45 184
34 46 207
34 47 46
34 48 153
34 49 172
34 50 130
34 51 109
34 52 237
34 53 19
34 54 34
34 55 146
34 56 97
34 57 187
34 58 142
34 59 47
34 60 72
34 61 25
34 62 107
34 63 57
34 64 200
34 65 47
34 66 163
34 67 48
34 68 193
34 69 110
34 70 115
34 71 197
34 72 223
34 73 94
34 74 13
34 75 59
34 76 199
34 77 52
34 78 22
34 79 36
34 80 104
35 36 195
35 37 24
35 38 182
35 39 157
35 40 58
35 41 68
35 42 14
35 43 223
35 44 218
35 45 111
35 46 101
35 47 56
35 48 30
35 49 98
35 50 110
35 51 77
35 52 82
35 53 234
35 54 12
35 55 98
35 56 185
35 57 152
35 58 143
35 59 53
35 60 167
35 61 239
35 62 66
35 63 152
35 64 19
35 65 132
35 66 117
35 67 229
35 68 89
35 69 101
35 70 1
35 71 139
35 72 154
35 73 121
35 74 186
35 75 224
35 76 179
35 77 138
35 78 236
35 79 90
35 80 5
36 37 193
36 38 143
36 39 219
36 40 18
36 41 16
36 42 50
36 43 208
36 44 154
36 45 159
36 46 2
36 47 8
36 48 238
36 49 56
36 50 20
36 51 227
36 52 173
36 53 199
36 54 208
36 55 231
36 56 147
36 57 100
36 58 78
36 59 72
36 60 151
36 61 108
36 62 202
36 63 200
36 64 69
36 65 185
36 66 150
36 67 42
36 68 194
36 69 233
36 70 67
36 71 1
36 72 163
36 73 121
36 74 151
36 75 99
36 76 203
36 77 140
36 78 43
36 79 90
36 80 111
37 38 137
37 39 198
37 40 88
37 41 14
37 42 68
37 43 61
37 44 33
37 45 13
37 46 133
37 47 110
37 48 62
37 49 93
37 50 42
37 51 233
37 52 133
37 53 86
37 54 57
37 55 41
37 56 144
37 57 116
37 58 153
37 59 218
37 60 5
37 61 122
37 62 217
37 63 148
37 64 136
37 65 86
37 66 189
37 67 48
37 68 69
37 69 158
37 70 2
37 71 61
37 72 99
37 73 236
37 74 174
37 75 116
37 76 118
37 77 44
37 78 53
37 79 19
37 80 223
38 39 74
38 40 150
38 41 70
38 42 239
38 43 209
38 44 80
38 45 53
38 46 195
38 47 141
38 48 57
38 49 100
38 50 23
38 51 109
38 52 78
38 53 83
38 54 159
38 55 136
38 56 120
38 57 202
38 58 29
38 59 62
38 60 237
38 61 103
38 62 53
38 63 199
38 64 147
38 65 15
38 66 13
38 67 51
38 68 179
38 69 130
38 70 58
38 71 98
38 72 163
38 73 46
38 74 184
38 75 104
38 76 1
38 77 169
38 78 208
38 79 92
38 80 1
39 40 126
39 41 116
39 42 204
39 43 231
39 44 190
39 45 36
39 46 109
39 47 172
39 48 15
39 49 127
39 50 109
39 51 23
39 52 79
39 53 227
39 54 34
39 55 124
39 56 146
39 57 89
39 58 6
39 59 80
39 60 56
39 61 2
39 62 83
39 63 223
39 64 127
39 65 192
39 66 3
39 67 13
39 68 119
39 69 219
39 70 211
39 71 70
39 72 89
39 73 54
39 74 157
39 75 65
39 76 227
39 77 95
39 78 150
39 79 143
39 80 163
40 41 195
40 42 154
40 43 122
40 44 235
40 45 35
40 46 41
40 47 26
40 48 113
40 49 219
40 50 90
40 51 97
40 52 8
40 53 170
40 54 15
40 55 206
40 56 215
40 57 121
40 58 61
40 59 41
40 60 75
40 61 25
40 62 81
40 63 75
40 64 11
40 65 151
40 66 219
40 67 218
40 68 99
40 69 64
40 70 94
40 71 144
40 72 218
40 73 87
40 74 17
40 75 176
40 76 20
40 77 112
40 78 152
40 79 226
40 80 114
41 42 93
41 43 89
41 44 196
41 45 2
41 46 52
41 47 71
41 48 227
41 49 133
41 50 231
41 51 223
41 52 104
41 53 230
41 54 99
41 55 146
41 56 73
41 57 92
41 58 198
41 59 218
41 60 228
41 61 222
41 62 72
41 63 207
41 64 164
41 65 4
41 66 152
41 67 215
41 68 151
41 69 69
41 70 118
41 71 30
41 72 130
41 73 112
41 74 199
41 75 226
41 76 223
41 77 61
41 78 124
41 79 105
41 80 225
42 43 23
42 44 195
42 45 37
42 46 115
42 47 85
42 48 6
42 49 49
42 50 45
42 51 215
42 52 223
42 53 195
42 54 0
42 55 125
42 56 111
42 57 10
42 58 13
42 59 154
42 60 187
42 61 10
42 62 229
42 63 33
42 64 29
42 65 122
42 66 114
42 67 63
42 68 134
42 69 216
42 70 129
42 71 187
42 72 186
42 73 116
42 74 140
42 75 184
42 76 48
42 77 189
42 78 214
42 79 20
42 80 202
43 44 149
43 45 156
43 46 224
43 47 92
43 48 181
43 49 99
43 50 45
43 51 49
43 52 57
43 53 194
43 54 193
43 55 148
43 56 158
43 57 231
43 58 176
43 59 50
43 60 32
43 61 76
43 62 170
43 63 185
43 64 99
43 65 100
43 66 5
43 67 111
43 68 187
43 69 194
43 70 179
43 71 224
43 72 81
43 73 217
43 74 158
43 75 238
43 76 29
43 77 215
43 78 47
43 79 58
43 80 154
44 45 130
44 46 33
44 47 51
44 48 19
44 49 227
44 50 97
44 51 153
44 52 89
44 53 80
44 54 132
44 55 49
44 56 180
44 57 105
44 58 111
44 59 102
44 60 107
44 61 48
44 62 24
44 63 129
44 64 22
44 65 230
44 66 135
44 67 181
44 68 165
44 69 87
44 70 55
44 71 207
44 72 60
44 73 100
44 74 149
44 75 138
44 76 136
44 77 94
44 78 82
44 79 181
44 80 119
45 46 186
45 47 234
45 48 43
45 49 29
45 50 70
45 51 123
45 52 147
45 53 83
45 54 118
45 55 114
45 56 167
45 57 95
45 58 185
45 59 33
45 60 77
45 61 217
45 62 22
45 63 231
45 64 1
45 65 226
45 66 187
45 67 184
45 68 158
45 69 236
45 70 166
45 71 208
45 72 91
45 73 139
45 74 39
45 75 225
45 76 72
45 77 137
45 78 201
45 79 4
45 80 64
46 47 90
46 48 212
46 49 20
46 50 100
46 51 144
46 52 15
46 53 102
46 54 201
46 55 123
46 56 76
46 57 109
46 58 177
46 59 108
46 60 187
46 61 24
46 62 142
46 63 40
46 64 89
46 65 125
46 66 184
46 67 94
46 68 140
46 69 20
46 70 40
46 71 155
46 72 63
46 73 202
46 74 64
46 75 182
46 76 47
46 77 111
46 78 167
46 79 150
46 80 19
47 48 59
47 49 47
47 50 156
47 51 4
47 52 139
47 53 59
47 54 122
47 55 32
47 56 28
47 57 216
47 58 142
47 59 56
47 60 91
47 61 60
47 62 206
47 63 71
47 64 205
47 65 205
47 66 102
47 67 211
47 68 135
47 69 167
47 70 0
47 71 37
47 72 115
47 73 58
47 74 92
47 75 105
47 76 165
47 77 232
47 78 11
47 79 59
47 80 17
48 49 20
48 50 109
48 51 129
48 52 122
48 53 77
48 54 167
48 55 161
48 56 16
48 57 19
48 58 235
48 59 83
48 60 203
48 61 213
48 62 187
48 63 59
48 64 239
48 65 54
48 66 184
48 67 21
48 68 232
48 69 116
48 70 195
48 71 233
48 72 81
48 73 229
48 74 139
48 75 162
48 76 166
48 77 150
48 78 69
48 79 69
48 80 106
49 50 9
49 51 120
49 52 123
49 53 202
49 54 11
49 55 231
49 56 27
49 57 168
49 58 199
49 59 99
49 60 131
49 61 36
49 62 71
49 63 73
49 64 47
49 65 26
49 66 107
49 67 70
49 68 26
49 69 33
49 70 92
49 71 151
49 72 7
49 73 115
49 74 59
49 75 169
49 76 33
49 77 59
49 78 111
49 79 219
49 80 225
50 51 96
50 52 75
50 53 83
50 54 118
50 55 48
50 56 27
50 57 227
50 58 133
50 59 233
50 60 59
50 61 114
50 62 125
50 63 170
50 64 174
50 65 24
50 66 26
50 67 88
50 68 37
50 69 117
50 70 113
50 71 104
50 72 211
50 73 55
50 74 223
50 75 39
50 76 167
50 77 178
50 78 130
50 79 81
50 80 117
51 52 111
51 53 138
51 54 158
51 55 213
51 56 41
51 57 217
51 58 10
51 59 178
51 60 124
51 61 48
51 62 205
51 63 36
51 64 187
51 65 124
51 66 36
51 67 198
51 68 156
51 69 188
51 70 4
51 71 168
51 72 191
51 73 162
51 74 11
51 75 166
51 76 206
51 77 135
51 78 145
51 79 58
51 80 32
52 53 131
52 54 3
52 55 225
52 56 236
52 57 147
52 58 54
52 59 102
52 60 75
52 61 6
52 62 52
52 63 191
52 64 183
52 65 140
52 66 28
52 67 167
52 68 125
52 69 210
52 70 120
52 71 134
52 72 183
52 73 179
52 74 95
52 75 102
52 76 31
52 77 71
52 78 31
52 79 95
52 80 60
53 54 10
53 55 158
53 56 19
53 57 40
53 58 209
53 59 194
53 60 131
53 61 3
53 62 154
53 63 184
53 64 117
53 65 212
53 66 212
53 67 231
53 68 166
53 69 18
53 70 184
53 71 224
53 72 220
53 73 231
53 74 56
53 75 65
53 76 127
53 77 215
53 78 56
53 79 173
53 80 222
54 55 139
54 56 225
54 57 169
54 58 61
54 59 142
54 60 29
54 61 84
54 62 74
54 63 162
54 64 81
54 65 112
54 66 209
54 67 79
54 68 180
54 69 151
54 70 239
54 71 181
54 72 230
54 73 95
54 74 194
54 75 186
54 76 134
54 77 144
54 78 15
54 79 19
54 80 211
55 56 26
55 57 222
55 58 18
55 59 198
55 60 96
55 61 112
55 62 88
55 63 68
55 64 217
55 65 56
55 66 48
55 67 234
55 68 185
55 69 160
55 70 73
55 71 88
55 72 125
55 73 184
55 74 229
55 75 124
55 76 209
55 77 126
55 78 4
55 79 184
55 80 48
56 57 214
56 58 110
56 59 134
56 60 52
56 61 143
56 62 139
56 63 47
56 64 91
56 65 174
56 66 103
56 67 49
56 68 216
56 69 60
56 70 89
56 71 121
56 72 130
56 73 197
56 74 89
56 75 146
56 76 196
56 77 167
56 78 124
56 79 236
56 80 83
57 58 223
57 59 204
57 60 195
57 61 74
57 62 232
57 63 63
57 64 121
57 65 61
57 66 33
57 67 158
57 68 208
57 69 225
57 70 157
57 71 202
57 72 101
57 73 222
57 74 171
57 75 14
57 76 56
57 77 210
57 78 58
57 79 236
57 80 171
58 59 231
58 60 117
58 61 95
58 62 211
58 63 44
58 64 213
58 65 67
58 66 130
58 67 85
58 68 102
58 69 197
58 70 164
58 71 66
58 72 155
58 73 80
58 74 162
58 75 149
58 76 8
58 77 211
58 78 197
58 79 165
58 80 66
59 60 152
59 61 208
59 62 237
59 63 110
59 64 41
59 65 221
59 66 66
59 67 123
59 68 183
59 69 226
59 70 209
59 71 173
59 72 187
59 73 177
59 74 0
59 75 237
59 76 200
59 77 14
59 78 81
59 79 189
59 80 93
60 61 38
60 62 67
60 63 178
60 64 19
60 65 229
60 66 32
60 67 79
60 68 122
60 69 229
60 70 162
60 71 25
60 72 160
60 73 136
60 74 7
60 75 46
60 76 75
60 77 19
60 78 188
60 79 208
60 80 180
61 62 21
61 63 125
61 64 115
61 65 34
61 66 149
61 67 83
61 68 178
61 69 75
61 70 160
61 71 29
61 72 151
61 73 116
61 74 22
61 75 228
61 76 23
61 77 92
61 78 176
61 79 164
61 80 61
62 63 115
62 64 125
62 65 74
62 66 206
62 67 4
62 68 230
62 69 226
62 70 0
62 71 172
62 72 62
62 73 6
62 74 134
62 75 162
62 76 139
62 77 144
62 78 107
62 79 226
62 80 61
63 64 57
63 65 181
63 66 206
63 67 168
63 68 46
63 69 177
63 70 129
63 71 161
63 72 88
63 73 204
63 74 157
63 75 82
63 76 120
63 77 112
63 78 180
63 79 187
63 80 3
64 65 183
64 66 71
64 67 72
64 68 197
64 69 206
64 70 81
64 71 194
64 72 158
64 73 163
64 74 230
64 75 60
64 76 69
64 77 96
64 78 201
64 79 43
64 80 105
65 66 4
65 67 219
65 68 209
65 69 21
65 70 237
65 71 15
65 72 88
65 73 194
65 74 153
65 75 176
65 76 40
65 77 157
65 78 150
65 79 145
65 80 85
66 67 150
66 68 68
66 69 119
66 70 107
66 71 233
66 72 190
66 73 169
66 74 18
66 75 214
66 76 39
66 77 64
66 78 87
66 79 228
66 80 155
67 68 192
67 69 131
67 70 120
67 71 74
67 72 6
67 73 176
67 74 125
67 75 84
67 76 33
67 77 62
67 78 95
67 79 7
67 80 189
68 69 65
68 70 153
68 71 71
68 72 191
68 73 217
68 74 192
68 75 185
68 76 132
68 77 107
68 78 221
68 79 87
68 80 140
69 70 132
69 71 151
69 72 206
69 73 28
69 74 6
69 75 89
69 76 206
69 77 37
69 78 183
69 79 40
69 80 32
70 71 75
70 72 180
70 73 162
70 74 129
70 75 105
70 76 5
70 77 107
70 78 28
70 79 94
70 80 188
71 72 216
71 73 194
71 74 60
71 75 41
71 76 36
71 77 11
71 78 14
71 79 155
71 80 195
72 73 3
72 74 190
72 75 130
72 76 31
72 77 163
72 78 86
72 79 141
72 80 232
73 74 148
73 75 213
73 76 95
73 77 119
73 78 239
73 79 33
73 80 147
74 75 153
74 76 143
74 77 177
74 78 217
74 79 132
74 80 27
75 76 145
75 77 186
75 78 101
75 79 82
75 80 201
76 77 9
76 78 52
76 79 106
76 80 131
77 78 6
77 79 105
77 80 183
78 79 160
78 80 229
79 80 48
